db/inputs/87612606132193501997271034827324740.smt2
(set-logic QF_FP)
(declare-const x0 (_ FloatingPoint 8 24))
(declare-const x1 (_ FloatingPoint 8 24))
(declare-const x2 (_ FloatingPoint 8 24))
(declare-const x3 (_ FloatingPoint 8 24))
(declare-const x4 (_ FloatingPoint 8 24))
(assert (fp.eq (fp.add RNE x3 x1) (fp.div RNE x4 x1)))
(assert (fp.geq (fp.add RNE x1 x4) (fp.div RNE x3 x4)))
(assert (fp.gt (fp.add RNE x3 x3) (fp.add RNE x1 x3)))
(assert (fp.geq (fp.add RNE x0 x1) (fp.mul RNE x2 x0)))
(assert (fp.lt (fp.div RNE x2 x1) (fp.sub RNE x4 x0)))
(assert (fp.eq (fp.mul RNE x0 x0) (fp.mul RNE x2 x2)))
(assert (fp.eq (fp.sub RNE x0 x3) (fp.sub RNE x1 x0)))
(assert (fp.lt (fp.mul RNE x4 x1) (fp.sub RNE x1 x2)))
(check-sat)
