db/data/87612606132193501997271034827324740.z3.out
sat
-------------------
34.542983160
